nohup: ignoring input
2024-07-29 11:32:31.345672: I external/local_xla/xla/tsl/cuda/cudart_stub.cc:32] Could not find cuda drivers on your machine, GPU will not be used.
2024-07-29 11:32:32.702138: I external/local_xla/xla/tsl/cuda/cudart_stub.cc:32] Could not find cuda drivers on your machine, GPU will not be used.
2024-07-29 11:32:33.370474: E external/local_xla/xla/stream_executor/cuda/cuda_fft.cc:485] Unable to register cuFFT factory: Attempting to register factory for plugin cuFFT when one has already been registered
2024-07-29 11:32:33.965598: E external/local_xla/xla/stream_executor/cuda/cuda_dnn.cc:8454] Unable to register cuDNN factory: Attempting to register factory for plugin cuDNN when one has already been registered
2024-07-29 11:32:34.107787: E external/local_xla/xla/stream_executor/cuda/cuda_blas.cc:1452] Unable to register cuBLAS factory: Attempting to register factory for plugin cuBLAS when one has already been registered
2024-07-29 11:32:35.269340: I tensorflow/core/platform/cpu_feature_guard.cc:210] This TensorFlow binary is optimized to use available CPU instructions in performance-critical operations.
To enable the following instructions: AVX2 FMA, in other operations, rebuild TensorFlow with the appropriate compiler flags.
2024-07-29 11:32:55.162940: W tensorflow/compiler/tf2tensorrt/utils/py_utils.cc:38] TF-TRT Warning: Could not find TensorRT
905
no warm start
Set parameter TokenServer to value "vm-gurobi-license.doc.ic.ac.uk"
Gurobi Optimizer version 11.0.2 build v11.0.2rc0 (linux64 - "Ubuntu 22.04.4 LTS")

CPU model: Intel(R) Core(TM) i7-8700 CPU @ 3.20GHz, instruction set [SSE2|AVX|AVX2]
Thread count: 6 physical cores, 12 logical processors, using up to 12 threads

Optimize a model with 1300 rows, 13610 columns and 27844 nonzeros
Model fingerprint: 0x90c3e185
Model has 200 quadratic constraints
Variable types: 13350 continuous, 260 integer (260 binary)
Coefficient statistics:
  Matrix range     [4e-03, 3e+02]
  QMatrix range    [1e+00, 1e+00]
  QLMatrix range   [1e+00, 2e+00]
  Objective range  [1e+00, 1e+00]
  Bounds range     [1e+00, 1e+00]
  RHS range        [2e+01, 3e+02]
  QRHS range       [1e+00, 1e+00]
Presolve removed 360 rows and 7008 columns
Presolve time: 0.07s
Presolved: 7540 rows, 8302 columns, 43888 nonzeros
Presolved model has 100 quadratic constraint(s)
Presolved model has 1600 bilinear constraint(s)

Solving non-convex MIQCP

Variable types: 8042 continuous, 260 integer (260 binary)
Found heuristic solution: objective 100.0000000

Root relaxation: objective 9.000000e+01, 2524 iterations, 0.04 seconds (0.05 work units)

    Nodes    |    Current Node    |     Objective Bounds      |     Work
 Expl Unexpl |  Obj  Depth IntInf | Incumbent    BestBd   Gap | It/Node Time

     0     0   90.00000    0   14  100.00000   90.00000  10.0%     -    0s
H    0     0                      98.0001963   90.00000  8.16%     -    0s
     0     0   90.00000    0  209   98.00020   90.00000  8.16%     -    0s
H    0     0                      94.2730575   90.00000  4.53%     -    0s
     0     0   90.00000    0  209   94.27306   90.00000  4.53%     -    0s
H    0     0                      93.0000000   90.00000  3.23%     -    0s
     0     0   90.00000    0  238   93.00000   90.00000  3.23%     -    0s
     0     0   90.00000    0  256   93.00000   90.00000  3.23%     -    0s
     0     0   90.00000    0  258   93.00000   90.00000  3.23%     -    0s
     0     0   90.00000    0  243   93.00000   90.00000  3.23%     -    0s
H    0     0                      92.0000002   90.00000  2.17%     -    0s
     0     0   90.00000    0  253   92.00000   90.00000  2.17%     -    0s
H    0     0                      91.8769532   90.00000  2.04%     -    0s
     0     0   90.00000    0  229   91.87695   90.00000  2.04%     -    0s
     0     0   90.00000    0  229   91.87695   90.00000  2.04%     -    0s
     0     0   90.00000    0  229   91.87695   90.00000  2.04%     -    0s
     0     0   90.00000    0  229   91.87695   90.00000  2.04%     -    0s
     0     0   90.00000    0  229   91.87695   90.00000  2.04%     -    0s
H    0     0                      91.7686698   90.00000  1.93%     -    1s
     0     2   90.00000    0  229   91.76867   90.00000  1.93%     -    1s
H   32    38                      91.0000000   90.00000  1.10%   259    1s
H   83   139                      90.8522579   90.00000  0.94%   275    2s
H  105   139                      90.0000000   90.00000  0.00%   234    2s

Cutting planes:
  Implied bound: 9
  MIR: 12
  Flow cover: 29
  RLT: 10

Explored 144 nodes (33230 simplex iterations) in 2.58 seconds (3.25 work units)
Thread count was 12 (of 12 available processors)

Solution count 10: 90 90.8523 91 ... 100

Optimal solution found (tolerance 1.00e-04)
Best objective 9.000000000000e+01, best bound 9.000000000000e+01, gap 0.0000%
no warm start
Gurobi Optimizer version 11.0.2 build v11.0.2rc0 (linux64 - "Ubuntu 22.04.4 LTS")

CPU model: Intel(R) Core(TM) i7-8700 CPU @ 3.20GHz, instruction set [SSE2|AVX|AVX2]
Thread count: 6 physical cores, 12 logical processors, using up to 12 threads

Optimize a model with 1300 rows, 1322 columns and 5060 nonzeros
Model fingerprint: 0x1d68c779
Model has 200 quadratic constraints
Variable types: 1062 continuous, 260 integer (260 binary)
Coefficient statistics:
  Matrix range     [3e-03, 3e+02]
  QMatrix range    [1e+00, 1e+00]
  QLMatrix range   [1e+00, 2e+00]
  Objective range  [1e+00, 1e+00]
  Bounds range     [1e+00, 1e+00]
  RHS range        [2e+01, 3e+02]
  QRHS range       [1e+00, 1e+00]
Presolve removed 360 rows and 0 columns
Presolve time: 0.01s
Presolved: 7540 rows, 3022 columns, 22800 nonzeros
Presolved model has 100 quadratic constraint(s)
Presolved model has 1600 bilinear constraint(s)

Solving non-convex MIQCP

Variable types: 2762 continuous, 260 integer (260 binary)
Found heuristic solution: objective 100.0000000

Root relaxation: objective 9.000000e+01, 2000 iterations, 0.02 seconds (0.02 work units)

    Nodes    |    Current Node    |     Objective Bounds      |     Work
 Expl Unexpl |  Obj  Depth IntInf | Incumbent    BestBd   Gap | It/Node Time

     0     0   90.00000    0   18  100.00000   90.00000  10.0%     -    0s
     0     0   90.00000    0   18  100.00000   90.00000  10.0%     -    0s
H    0     0                      99.8412858   90.00000  9.86%     -    0s
     0     0   90.00000    0   18   99.84129   90.00000  9.86%     -    0s
H    0     0                      99.0000000   90.00000  9.09%     -    0s
     0     0   90.00000    0   18   99.00000   90.00000  9.09%     -    0s
H    0     0                      96.5919151   90.00000  6.82%     -    0s
     0     0   90.00000    0   18   96.59192   90.00000  6.82%     -    0s
     0     0   90.00000    0   18   96.59192   90.00000  6.82%     -    0s
     0     0   90.00000    0   18   96.59192   90.00000  6.82%     -    0s
     0     0   90.00000    0   18   96.59192   90.00000  6.82%     -    0s
     0     2   90.00000    0   18   96.59192   90.00000  6.82%     -    0s
H    3     8                      90.2995560   90.00000  0.33%  11.7    0s
H   34    37                      90.0003665   90.00000  0.00%  47.1    0s
H   37    37                      90.0000621   90.00000  0.00%  44.7    0s

Explored 40 nodes (4818 simplex iterations) in 0.46 seconds (0.54 work units)
Thread count was 12 (of 12 available processors)

Solution count 7: 90.0001 90.0004 90.2996 ... 100

Optimal solution found (tolerance 1.00e-04)
Best objective 9.000006214289e+01, best bound 9.000000000000e+01, gap 0.0001%
mnist - Average accuracy over 1 experiments with 10 training points: 1.0
smaller - Average accuracy over 1 experiments with 10 training points: 1.0
no warm start
Gurobi Optimizer version 11.0.2 build v11.0.2rc0 (linux64 - "Ubuntu 22.04.4 LTS")

CPU model: Intel(R) Core(TM) i7-8700 CPU @ 3.20GHz, instruction set [SSE2|AVX|AVX2]
Thread count: 6 physical cores, 12 logical processors, using up to 12 threads

Optimize a model with 2600 rows, 14490 columns and 53272 nonzeros
Model fingerprint: 0x99a16784
Model has 400 quadratic constraints
Variable types: 13970 continuous, 520 integer (520 binary)
Coefficient statistics:
  Matrix range     [4e-03, 3e+02]
  QMatrix range    [1e+00, 1e+00]
  QLMatrix range   [1e+00, 2e+00]
  Objective range  [1e+00, 1e+00]
  Bounds range     [1e+00, 1e+00]
  RHS range        [2e+01, 3e+02]
  QRHS range       [1e+00, 1e+00]
Presolve removed 720 rows and 6160 columns
Presolve time: 0.04s
Presolved: 15080 rows, 11730 columns, 87568 nonzeros
Presolved model has 200 quadratic constraint(s)
Presolved model has 3200 bilinear constraint(s)

Solving non-convex MIQCP

Variable types: 11210 continuous, 520 integer (520 binary)
Found heuristic solution: objective 200.0000000

Root relaxation: objective 1.800000e+02, 5480 iterations, 0.14 seconds (0.22 work units)

    Nodes    |    Current Node    |     Objective Bounds      |     Work
 Expl Unexpl |  Obj  Depth IntInf | Incumbent    BestBd   Gap | It/Node Time

     0     0  180.00000    0   21  200.00000  180.00000  10.0%     -    0s
H    0     0                     197.7500000  180.00000  8.98%     -    4s
H    0     0                     196.0000000  180.00000  8.16%     -    4s
H    0     0                     195.0000000  180.00000  7.69%     -    4s
H    0     0                     194.0003916  180.00000  7.22%     -    4s
H    0     0                     189.0000004  180.00000  4.76%     -    4s
H    0     0                     181.8413790  180.00000  1.01%     -    4s
H    0     0                     180.5849401  180.00000  0.32%     -    4s
     0     0  180.00000    0 1624  180.58494  180.00000  0.32%     -    4s
     0     0  180.00000    0 1622  180.58494  180.00000  0.32%     -    4s
H    0     0                     180.1070894  180.00000  0.06%     -    5s
H    0     0                     180.1070893  180.00000  0.06%     -    5s
H    0     0                     180.0602043  180.00000  0.03%     -    5s
     0     0  180.00000    0 1367  180.06020  180.00000  0.03%     -    5s
H    0     0                     180.0072735  180.00000  0.00%     -    5s

Cutting planes:
  Gomory: 1
  Implied bound: 19
  MIR: 16
  Flow cover: 12
  RLT: 5

Explored 1 nodes (23620 simplex iterations) in 5.79 seconds (6.45 work units)
Thread count was 12 (of 12 available processors)

Solution count 10: 180.007 180.06 180.107 ... 196

Optimal solution found (tolerance 1.00e-04)
Best objective 1.800072734722e+02, best bound 1.800000000000e+02, gap 0.0040%
no warm start
Gurobi Optimizer version 11.0.2 build v11.0.2rc0 (linux64 - "Ubuntu 22.04.4 LTS")

CPU model: Intel(R) Core(TM) i7-8700 CPU @ 3.20GHz, instruction set [SSE2|AVX|AVX2]
Thread count: 6 physical cores, 12 logical processors, using up to 12 threads

Optimize a model with 2600 rows, 2202 columns and 10120 nonzeros
Model fingerprint: 0x911d84f3
Model has 400 quadratic constraints
Variable types: 1682 continuous, 520 integer (520 binary)
Coefficient statistics:
  Matrix range     [3e-03, 3e+02]
  QMatrix range    [1e+00, 1e+00]
  QLMatrix range   [1e+00, 2e+00]
  Objective range  [1e+00, 1e+00]
  Bounds range     [1e+00, 1e+00]
  RHS range        [2e+01, 3e+02]
  QRHS range       [1e+00, 1e+00]
Presolve removed 880 rows and 160 columns
Presolve time: 0.02s
Presolved: 14920 rows, 5442 columns, 42720 nonzeros
Presolved model has 200 quadratic constraint(s)
Presolved model has 3200 bilinear constraint(s)

Solving non-convex MIQCP

Variable types: 4922 continuous, 520 integer (520 binary)
Found heuristic solution: objective 200.0000000

Root relaxation: objective 1.800000e+02, 3972 iterations, 0.05 seconds (0.06 work units)

    Nodes    |    Current Node    |     Objective Bounds      |     Work
 Expl Unexpl |  Obj  Depth IntInf | Incumbent    BestBd   Gap | It/Node Time

     0     0  180.00000    0  106  200.00000  180.00000  10.0%     -    0s
     0     0  180.00000    0  112  200.00000  180.00000  10.0%     -    0s
H    0     0                     187.5022353  180.00000  4.00%     -    0s
     0     0  180.00000    0  112  187.50224  180.00000  4.00%     -    0s
     0     0  180.00000    0  106  187.50224  180.00000  4.00%     -    0s
     0     0  180.00000    0  106  187.50224  180.00000  4.00%     -    0s
     0     0  180.00000    0  106  187.50224  180.00000  4.00%     -    0s
     0     0  180.00000    0  106  187.50224  180.00000  4.00%     -    0s
     0     0  180.00000    0  106  187.50224  180.00000  4.00%     -    0s
H    0     0                     187.3431453  180.00000  3.92%     -    0s
     0     2  180.00000    0  106  187.34315  180.00000  3.92%     -    0s
H   31    38                     187.3187305  180.00000  3.91%  25.1    1s
H   32    38                     187.0743864  180.00000  3.78%  24.5    1s
H   86   116                     186.9281217  180.00000  3.71%  12.4    1s
H  132   232                     186.9281207  180.00000  3.71%  10.6    1s
H  210   232                     185.3388937  180.00000  2.88%  13.0    1s
H  312   585                     183.8945097  180.00000  2.12%  12.4    2s
H  584  1020                     183.3890785  180.00000  1.85%  12.9    3s
H  654   998                     180.3599453  180.00000  0.20%  13.4    3s
H 1019  1519                     180.0185967  180.00000  0.01%  16.7    3s
H 1092  1519                     180.0000000  180.00000  0.00%  16.6    3s

Cutting planes:
  RLT: 2

Explored 1556 nodes (27145 simplex iterations) in 3.76 seconds (3.60 work units)
Thread count was 12 (of 12 available processors)

Solution count 10: 180 180.019 180.36 ... 187.319

Optimal solution found (tolerance 1.00e-04)
Best objective 1.800000000378e+02, best bound 1.800000000000e+02, gap 0.0000%
mnist - Average accuracy over 1 experiments with 20 training points: 1.0
smaller - Average accuracy over 1 experiments with 20 training points: 1.0
no warm start
Gurobi Optimizer version 11.0.2 build v11.0.2rc0 (linux64 - "Ubuntu 22.04.4 LTS")

CPU model: Intel(R) Core(TM) i7-8700 CPU @ 3.20GHz, instruction set [SSE2|AVX|AVX2]
Thread count: 6 physical cores, 12 logical processors, using up to 12 threads

Optimize a model with 3900 rows, 15370 columns and 79548 nonzeros
Model fingerprint: 0xad832e7c
Model has 600 quadratic constraints
Variable types: 14590 continuous, 780 integer (780 binary)
Coefficient statistics:
  Matrix range     [4e-03, 3e+02]
  QMatrix range    [1e+00, 1e+00]
  QLMatrix range   [1e+00, 2e+00]
  Objective range  [1e+00, 1e+00]
  Bounds range     [1e+00, 1e+00]
  RHS range        [2e+01, 3e+02]
  QRHS range       [1e+00, 1e+00]
Presolve removed 1080 rows and 5776 columns
Presolve time: 0.07s
Presolved: 22620 rows, 14694 columns, 131952 nonzeros
Presolved model has 300 quadratic constraint(s)
Presolved model has 4800 bilinear constraint(s)

Solving non-convex MIQCP

Variable types: 13914 continuous, 780 integer (780 binary)
Found heuristic solution: objective 300.0000000
Deterministic concurrent LP optimizer: primal and dual simplex
Showing primal log only...

Concurrent spin time: 0.00s

Solved with primal simplex

Use crossover to convert LP symmetric solution to basic solution...

Root relaxation: objective 2.700000e+02, 1812 iterations, 0.10 seconds (0.13 work units)

    Nodes    |    Current Node    |     Objective Bounds      |     Work
 Expl Unexpl |  Obj  Depth IntInf | Incumbent    BestBd   Gap | It/Node Time

     0     0  270.00000    0   30  300.00000  270.00000  10.0%     -    0s
H    0     0                     299.0000000  270.00000  9.70%     -   25s
H    0     0                     298.0625000  270.00000  9.41%     -   25s
     0     0  270.00000    0 3636  298.06250  270.00000  9.41%     -   25s
     0     0  270.00000    0 3540  298.06250  270.00000  9.41%     -   26s
H    0     0                     297.8125001  270.00000  9.34%     -   26s
     0     0  270.00000    0 3546  297.81250  270.00000  9.34%     -   27s
     0     0  270.00000    0 3547  297.81250  270.00000  9.34%     -   27s
     0     0  270.00000    0 3545  297.81250  270.00000  9.34%     -   27s
     0     0  270.00000    0 3545  297.81250  270.00000  9.34%     -   28s
     0     0  270.00000    0 3545  297.81250  270.00000  9.34%     -   28s
     0     0  270.00000    0 3545  297.81250  270.00000  9.34%     -   28s
     0     0  270.00000    0 3545  297.81250  270.00000  9.34%     -   28s
     0     2  270.00000    0 3545  297.81250  270.00000  9.34%     -   58s
H   31    38                     276.8091551  270.00000  2.46%   160   60s
H   64    74                     274.9796276  270.00000  1.81%   138   61s
H  134   251                     270.0000000  270.00000  0.00%   121   64s

Cutting planes:
  Gomory: 11
  Implied bound: 30
  RLT: 3

Explored 250 nodes (81645 simplex iterations) in 64.07 seconds (94.92 work units)
Thread count was 12 (of 12 available processors)

Solution count 7: 270 274.98 276.809 ... 300

Optimal solution found (tolerance 1.00e-04)
Best objective 2.700000000214e+02, best bound 2.700000000214e+02, gap 0.0000%
no warm start
Gurobi Optimizer version 11.0.2 build v11.0.2rc0 (linux64 - "Ubuntu 22.04.4 LTS")

CPU model: Intel(R) Core(TM) i7-8700 CPU @ 3.20GHz, instruction set [SSE2|AVX|AVX2]
Thread count: 6 physical cores, 12 logical processors, using up to 12 threads

Optimize a model with 3900 rows, 3082 columns and 15180 nonzeros
Model fingerprint: 0xed7c021c
Model has 600 quadratic constraints
Variable types: 2302 continuous, 780 integer (780 binary)
Coefficient statistics:
  Matrix range     [3e-03, 3e+02]
  QMatrix range    [1e+00, 1e+00]
  QLMatrix range   [1e+00, 2e+00]
  Objective range  [1e+00, 1e+00]
  Bounds range     [1e+00, 1e+00]
  RHS range        [2e+01, 3e+02]
  QRHS range       [1e+00, 1e+00]
Presolve removed 1400 rows and 320 columns
Presolve time: 0.03s
Presolved: 22300 rows, 7862 columns, 62640 nonzeros
Presolved model has 300 quadratic constraint(s)
Presolved model has 4800 bilinear constraint(s)

Solving non-convex MIQCP

Variable types: 7082 continuous, 780 integer (780 binary)
Found heuristic solution: objective 300.0000000

Root relaxation: objective 2.700000e+02, 6054 iterations, 0.10 seconds (0.13 work units)

    Nodes    |    Current Node    |     Objective Bounds      |     Work
 Expl Unexpl |  Obj  Depth IntInf | Incumbent    BestBd   Gap | It/Node Time

     0     0  270.00000    0   66  300.00000  270.00000  10.0%     -    0s
     0     0  270.00000    0   73  300.00000  270.00000  10.0%     -    0s
H    0     0                     295.2558052  270.00000  8.55%     -    0s
H    0     0                     286.8824851  270.00000  5.88%     -    0s
     0     0  270.00000    0   84  286.88249  270.00000  5.88%     -    0s
H    0     0                     286.8824850  270.00000  5.88%     -    0s
     0     0  270.00000    0   84  286.88249  270.00000  5.88%     -    0s
     0     0  270.00000    0   84  286.88249  270.00000  5.88%     -    0s
     0     0  270.00000    0   84  286.88249  270.00000  5.88%     -    0s
H    0     0                     286.8424073  270.00000  5.87%     -    0s
H    0     0                     286.3904201  270.00000  5.72%     -    0s
     0     0  270.00000    0   84  286.39042  270.00000  5.72%     -    0s
     0     0  270.00000    0   84  286.39042  270.00000  5.72%     -    0s
H    0     0                     286.3904201  270.00000  5.72%     -    1s
     0     2  270.00000    0   84  286.39042  270.00000  5.72%     -    1s
H   31    38                     286.3904178  270.00000  5.72%  54.4    2s
H   32    38                     285.9888618  270.00000  5.59%  53.6    2s
H   33    38                     283.8588733  270.00000  4.88%  59.3    2s
H   34    38                     283.5502712  270.00000  4.78%  63.8    2s
H   79   115                     283.3953095  270.00000  4.73%  52.4    2s
H   89   115                     278.8039560  270.00000  3.16%  49.4    2s
H  134   227                     278.8039558  270.00000  3.16%  40.9    3s
H  179   227                     275.4296383  270.00000  1.97%  38.3    3s
H  274   471                     275.3564327  270.00000  1.95%  35.6    3s
H  342   471                     272.8259335  270.00000  1.04%  39.4    3s
H  525   765                     272.8259334  270.00000  1.04%  37.3    4s
H  566   665                     270.9738149  270.00000  0.36%  37.7    4s
H  641   665                     270.4752538  270.00000  0.18%  34.9    4s
H  656   665                     270.2811400  270.00000  0.10%  34.7    4s
   764  1088     cutoff   90       270.28114  270.00000  0.10%  34.8    6s
H  835  1088                     270.2811374  270.00000  0.10%  34.5    6s
H 1000  1088                     270.2309704  270.00000  0.09%  32.9    6s
H 1243  1619                     270.2309702  270.00000  0.09%  34.0    7s
H 1480  1619                     270.0351267  270.00000  0.01%  33.6    7s
H 1599  1619                     270.0000000  270.00000  0.00%  32.0    7s

Cutting planes:
  Implied bound: 7
  Flow cover: 7
  RLT: 19

Explored 1775 nodes (64086 simplex iterations) in 7.68 seconds (8.29 work units)
Thread count was 12 (of 12 available processors)

Solution count 10: 270 270.035 270.231 ... 272.826

Optimal solution found (tolerance 1.00e-04)
Best objective 2.700000000419e+02, best bound 2.700000000000e+02, gap 0.0000%
mnist - Average accuracy over 1 experiments with 30 training points: 1.0
smaller - Average accuracy over 1 experiments with 30 training points: 1.0
no warm start
Gurobi Optimizer version 11.0.2 build v11.0.2rc0 (linux64 - "Ubuntu 22.04.4 LTS")

CPU model: Intel(R) Core(TM) i7-8700 CPU @ 3.20GHz, instruction set [SSE2|AVX|AVX2]
Thread count: 6 physical cores, 12 logical processors, using up to 12 threads

Optimize a model with 5200 rows, 16250 columns and 106656 nonzeros
Model fingerprint: 0x3f9337e5
Model has 800 quadratic constraints
Variable types: 15210 continuous, 1040 integer (1040 binary)
Coefficient statistics:
  Matrix range     [4e-03, 3e+02]
  QMatrix range    [1e+00, 1e+00]
  QLMatrix range   [1e+00, 2e+00]
  Objective range  [1e+00, 1e+00]
  Bounds range     [1e+00, 1e+00]
  RHS range        [2e+01, 3e+02]
  QRHS range       [1e+00, 1e+00]
Presolve removed 1440 rows and 5632 columns
Presolve time: 0.10s
Presolved: 30160 rows, 17418 columns, 176864 nonzeros
Presolved model has 400 quadratic constraint(s)
Presolved model has 6400 bilinear constraint(s)

Solving non-convex MIQCP

Variable types: 16378 continuous, 1040 integer (1040 binary)
Found heuristic solution: objective 400.0000000
Deterministic concurrent LP optimizer: primal and dual simplex
Showing primal log only...

Concurrent spin time: 0.00s

Solved with primal simplex

Use crossover to convert LP symmetric solution to basic solution...

Root relaxation: objective 3.600000e+02, 9749 iterations, 0.17 seconds (0.24 work units)

    Nodes    |    Current Node    |     Objective Bounds      |     Work
 Expl Unexpl |  Obj  Depth IntInf | Incumbent    BestBd   Gap | It/Node Time

     0     0  360.00000    0  474  400.00000  360.00000  10.0%     -    8s
H    0     0                     399.0000003  360.00000  9.77%     -   39s
H    0     0                     393.1440396  360.00000  8.43%     -   39s
H    0     0                     383.0000000  360.00000  6.01%     -   39s
H    0     0                     382.0000002  360.00000  5.76%     -   39s
H    0     0                     371.1070252  360.00000  2.99%     -   39s
H    0     0                     371.1070245  360.00000  2.99%     -   39s
     0     0  360.00000    0 4556  371.10702  360.00000  2.99%     -   39s
     0     0  360.00000    0 4500  371.10702  360.00000  2.99%     -   41s
H    0     0                     370.6911099  360.00000  2.88%     -   57s
     0     0  360.00000    0 4520  370.69111  360.00000  2.88%     -   67s
H    0     0                     370.1767889  360.00000  2.75%     -   74s
H    0     0                     370.1767885  360.00000  2.75%     -   74s
H    0     0                     369.1767886  360.00000  2.49%     -   74s
H    0     0                     368.6597202  360.00000  2.35%     -   74s
H    0     0                     368.6597201  360.00000  2.35%     -   74s
H    0     0                     360.8649500  360.00000  0.24%     -   74s
     0     0  360.00000    0 4351  360.86495  360.00000  0.24%     -   74s
H    0     0                     360.6414562  360.00000  0.18%     -   89s
     0     0  360.00000    0 4417  360.64146  360.00000  0.18%     -   99s
H    0     0                     360.4475860  360.00000  0.12%     -  102s
     0     0  360.00000    0 4413  360.44759  360.00000  0.12%     -  102s
     0     0  360.00000    0 4272  360.44759  360.00000  0.12%     -  116s
     0     0  360.00000    0 4237  360.44759  360.00000  0.12%     -  119s
     0     0  360.00000    0 4151  360.44759  360.00000  0.12%     -  132s
     0     0  360.00000    0 4105  360.44759  360.00000  0.12%     -  134s
     0     0  360.00000    0 4019  360.44759  360.00000  0.12%     -  148s
     0     0  360.00000    0 4006  360.44759  360.00000  0.12%     -  150s
     0     0  360.00000    0 3997  360.44759  360.00000  0.12%     -  164s
     0     0  360.00000    0 3997  360.44759  360.00000  0.12%     -  166s
H    0     0                     360.3306855  360.00000  0.09%     -  178s
     0     0  360.00000    0 3928  360.33069  360.00000  0.09%     -  187s
H    0     0                     360.2989737  360.00000  0.08%     -  189s
H    0     0                     360.1828246  360.00000  0.05%     -  189s
H    0     0                     360.0000001  360.00000  0.00%     -  189s
     0     0  360.00000    0 3888  360.00000  360.00000  0.00%     -  189s

Cutting planes:
  Gomory: 6
  Implied bound: 40
  MIR: 110
  Flow cover: 16
  RLT: 78

Explored 1 nodes (202137 simplex iterations) in 189.30 seconds (228.39 work units)
Thread count was 12 (of 12 available processors)

Solution count 10: 360 360.183 360.299 ... 369.177

Optimal solution found (tolerance 1.00e-04)
Warning: max constraint violation (1.5378e-06) exceeds tolerance
Best objective 3.600000000000e+02, best bound 3.600000000000e+02, gap 0.0000%
no warm start
Gurobi Optimizer version 11.0.2 build v11.0.2rc0 (linux64 - "Ubuntu 22.04.4 LTS")

CPU model: Intel(R) Core(TM) i7-8700 CPU @ 3.20GHz, instruction set [SSE2|AVX|AVX2]
Thread count: 6 physical cores, 12 logical processors, using up to 12 threads

Optimize a model with 5200 rows, 3962 columns and 20240 nonzeros
Model fingerprint: 0x8319c4bd
Model has 800 quadratic constraints
Variable types: 2922 continuous, 1040 integer (1040 binary)
Coefficient statistics:
  Matrix range     [3e-03, 3e+02]
  QMatrix range    [1e+00, 1e+00]
  QLMatrix range   [1e+00, 2e+00]
  Objective range  [1e+00, 1e+00]
  Bounds range     [1e+00, 1e+00]
  RHS range        [2e+01, 3e+02]
  QRHS range       [1e+00, 1e+00]
Presolve removed 1920 rows and 480 columns
Presolve time: 0.03s
Presolved: 29680 rows, 10282 columns, 82560 nonzeros
Presolved model has 400 quadratic constraint(s)
Presolved model has 6400 bilinear constraint(s)

Solving non-convex MIQCP

Variable types: 9242 continuous, 1040 integer (1040 binary)
Found heuristic solution: objective 400.0000000

Root relaxation: objective 3.600000e+02, 7993 iterations, 0.19 seconds (0.23 work units)

    Nodes    |    Current Node    |     Objective Bounds      |     Work
 Expl Unexpl |  Obj  Depth IntInf | Incumbent    BestBd   Gap | It/Node Time

     0     0  360.00000    0  228  400.00000  360.00000  10.0%     -    0s
     0     0  360.00000    0  165  400.00000  360.00000  10.0%     -    0s
H    0     0                     379.5464853  360.00000  5.15%     -    0s
H    0     0                     377.7045731  360.00000  4.69%     -    0s
     0     0  360.00000    0  280  377.70457  360.00000  4.69%     -    0s
     0     0  360.00000    0  280  377.70457  360.00000  4.69%     -    0s
     0     0  360.00000    0  226  377.70457  360.00000  4.69%     -    0s
     0     0  360.00000    0  152  377.70457  360.00000  4.69%     -    1s
     0     0  360.00000    0  152  377.70457  360.00000  4.69%     -    1s
     0     0  360.00000    0  152  377.70457  360.00000  4.69%     -    1s
     0     0  360.00000    0  144  377.70457  360.00000  4.69%     -    1s
     0     0  360.00000    0  144  377.70457  360.00000  4.69%     -    1s
     0     0  360.00000    0  144  377.70457  360.00000  4.69%     -    1s
     0     2  360.00000    0  144  377.70457  360.00000  4.69%     -    3s
H   34    38                     374.4181288  360.00000  3.85%  51.3    3s
H   67   150                     374.4181285  360.00000  3.85%  64.7    5s
H   67   150                     374.4181243  360.00000  3.85%  64.7    5s
H  101   150                     371.0000710  360.00000  2.96%  55.2    5s
H  209   272                     367.5078125  360.00000  2.04%  52.0    6s
   271   654  360.00000   31  136  367.50781  360.00000  2.04%  77.1   17s
H  347   654                     367.4413973  360.00000  2.03%  68.9   17s
H  429   654                     364.3144532  360.00000  1.18%  67.8   17s
H  657  1587                     364.3144529  360.00000  1.18%  93.8   21s
H  771  1587                     364.3144527  360.00000  1.18%  88.5   21s
H  905  1587                     362.0000002  360.00000  0.55%  80.0   21s
H 1598  2337                     360.0000002  360.00000  0.00%  58.1   29s
H 2214  1119                     360.0000000  360.00000  0.00%  45.5   29s

Cutting planes:
  Implied bound: 1
  MIR: 2
  RLT: 30

Explored 2386 nodes (128839 simplex iterations) in 29.42 seconds (31.81 work units)
Thread count was 12 (of 12 available processors)

Solution count 10: 360 360 362 ... 374.418

Optimal solution found (tolerance 1.00e-04)
Best objective 3.600000000000e+02, best bound 3.600000000000e+02, gap 0.0000%
mnist - Average accuracy over 1 experiments with 40 training points: 1.0
smaller - Average accuracy over 1 experiments with 40 training points: 1.0
